benchmarks/bfuzz0/227442531228380267743006732759203258844.smt2
(set-logic QF_FP)
(declare-const x0 (_ FloatingPoint 8 24))
(declare-const x1 (_ FloatingPoint 8 24))
(declare-const x2 (_ FloatingPoint 8 24))
(declare-const x3 (_ FloatingPoint 8 24))
(declare-const x4 (_ FloatingPoint 8 24))
(declare-const x5 (_ FloatingPoint 8 24))
(declare-const x6 (_ FloatingPoint 8 24))
(declare-const x7 (_ FloatingPoint 8 24))
(declare-const x8 (_ FloatingPoint 8 24))
(assert (fp.eq (fp.add RNE x8 x8) (fp.sub RNE x8 x0)))
(assert (fp.eq (fp.div RNE x0 x1) (fp.div RNE x5 x5)))
(assert (fp.leq (fp.div RNE x2 x6) (fp.add RNE x4 x8)))
(assert (fp.leq (fp.mul RNE x7 x3) (fp.div RNE x1 x7)))
(assert (fp.gt (fp.neg x1) (fp.sub RNE x3 x4)))
(assert (fp.gt (fp.add RNE x0 x0) (fp.mul RNE x3 x1)))
(check-sat)
