db/data/227442531228380267743006732759203258844.z3.out
sat
-------------------
109.631053195
